sat
(:max-memory          18.16
 :memory              17.66
 :num-allocs          9270624
 :rlimit-count        45167
 :sls-constraints     590
 :sls-ddfw-flips      137670.00
 :sls-ddfw-reinits    5
 :sls-ddfw-restarts   133
 :sls-ddfw-shifts     126368.00
 :solve-eqs-elim-vars 4
 :solve-eqs-steps     8
 :time                0.10
 :total-time          0.10)
